200
[21,22,23,24,25,27,28,29,32,33,34,35,36,37,38,40,41,42,44,45,48,49,51,52,53,54,55,56,57,58,61,62,63,64,65,67,68,69,70,72,73,74,75,76,77,78,79,80,82,85,86,87,88,89,90,91,92,93,94,95,97,98,99,100,101,102,104,106,107,108,109,110,112,113,114,115,116,117,118,119,120,121,122,123,125,126,127,128,129,130,131,132,133,134,135,136,137,140]
[1,2,3,1,2,1,1,2,1,1,2,1,1,3,4,1,1,2,1,2,1,2,4,1,1,3,1,1,1,4,2,3,3,4,1,3,1,3,1,1,3,2,2,1,1,3,2,1,3,2,1,1,3,3,2,1,2,3,3,4,1,2,3,3,2,1,1,3,4,1,4,1,2,1,3,2,1,3,4,2,1,1,2,2,2,2,1,3,3,4,2,2,1,3,2,3,4,1]
